NAME: concordetest2.tsp
COMMENT: Suomen kartta
TYPE: TSP
DIMENSION: 8
EDGE_WEIGHT_TYPE: EXPLICIT
EDGE_WEIGHT_FORMAT: FULL_MATRIX
DISPLAY_DATA_TYPE: NO_DISPLAY
EDGE_WEIGHT_SECTION
0 400 293 119 416 631 160 147 
400 0 211 281 111 351 344 486 
293 211 0 208 123 338 133 275 
119 281 208 0 331 546 279 266 
416 111 123 331 0 240 256 398 
631 351 338 546 240 0 471 613 
160 344 133 279 256 471 0 142 
147 486 275 266 398 613 142 0 
EOF
